p cnf 107 373
-1 -2 -3 0
1 2 -3 0
-1 2 3 0
1 -2 3 0
-5 4 0
-5 2 0
-4 -2 5 0
6 -3 0
6 5 0
3 -5 -6 0
-7 8 -9 0
7 -8 -9 0
-7 -8 9 0
7 8 9 0
1 5 -10 0
-1 -5 -10 0
1 -5 10 0
-1 5 10 0
9 10 -11 0
-9 -10 -11 0
9 -10 11 0
-9 10 11 0
13 -12 0
13 8 0
12 -8 -13 0
-14 -11 0
-14 -13 0
11 13 14 0
16 -17 0
-16 -17 0
-15 17 -18 0
15 -17 -18 0
-15 -17 18 0
15 17 18 0
-20 -19 0
-20 8 0
19 -8 20 0
21 -8 0
21 20 0
8 -20 -21 0
-22 18 0
-22 21 0
-18 -21 22 0
-20 -23 -24 0
20 23 -24 0
-20 23 24 0
20 -23 24 0
-25 -23 0
-25 23 0
26 -24 0
26 -25 0
24 25 -26 0
-22 26 -27 0
22 -26 -27 0
-22 -26 27 0
22 26 27 0
28 -14 0
28 -27 0
14 27 -28 0
-6 -28 -29 0
6 28 -29 0
-6 28 29 0
6 -28 29 0
31 30 0
31 -16 0
-30 16 -31 0
10 -31 -32 0
-10 31 -32 0
10 31 32 0
-10 -31 32 0
-33 -32 0
-33 12 0
32 -12 33 0
35 -18 0
35 -34 0
18 34 -35 0
36 -22 0
36 -35 0
22 35 -36 0
-37 33 0
-37 -36 0
-33 36 37 0
-39 -35 0
-39 38 0
35 -38 39 0
-40 3 0
-40 39 0
-3 -39 40 0
-41 4 0
-41 18 0
-4 -18 41 0
-42 -41 0
-42 -25 0
41 25 42 0
-43 42 0
-43 -25 0
-42 25 43 0
-44 -41 0
-44 -43 0
41 43 44 0
-45 -40 0
-45 -44 0
40 44 45 0
-46 -22 0
-46 34 0
22 -34 46 0
47 26 0
47 46 0
-26 -46 -47 0
-45 47 -48 0
45 -47 -48 0
-45 -47 48 0
45 47 48 0
49 -9 0
49 -16 0
9 16 -49 0
50 48 0
50 49 0
-48 -49 -50 0
51 37 0
51 50 0
-37 -50 -51 0
-18 13 -52 0
18 -13 -52 0
-18 -13 52 0
18 13 52 0
-53 52 0
-53 -42 0
-52 42 53 0
-7 4 -54 0
7 -4 -54 0
-7 -4 54 0
7 4 54 0
3 54 -55 0
-3 -54 -55 0
3 -54 55 0
-3 54 55 0
56 -53 0
56 -55 0
53 55 -56 0
57 -54 0
57 -52 0
54 52 -57 0
-10 13 -58 0
10 -13 -58 0
-10 -13 58 0
10 13 58 0
-59 57 0
-59 58 0
-57 -58 59 0
-21 -7 -60 0
21 7 -60 0
-21 7 60 0
21 -7 60 0
61 -10 0
61 -15 0
10 15 -61 0
-62 61 0
-62 55 0
-61 -55 62 0
63 17 0
63 -62 0
-17 62 -63 0
-10 63 -64 0
10 -63 -64 0
-10 -63 64 0
10 63 64 0
65 -53 0
65 -64 0
53 64 -65 0
60 -65 -66 0
-60 65 -66 0
60 65 66 0
-60 -65 66 0
67 59 0
67 -66 0
-59 66 -67 0
-56 -67 -68 0
56 67 -68 0
-56 67 68 0
56 -67 68 0
69 -51 0
69 -68 0
51 68 -69 0
15 54 -70 0
-15 -54 -70 0
15 -54 70 0
-15 54 70 0
-71 -4 0
-71 -12 0
4 12 71 0
-72 60 0
-72 -16 0
-60 16 72 0
73 -71 0
73 72 0
71 -72 -73 0
-74 -9 0
-74 -18 0
9 18 74 0
75 54 0
75 74 0
-54 -74 -75 0
76 43 0
76 3 0
-43 -3 -76 0
-75 76 -77 0
75 -76 -77 0
-75 -76 77 0
75 76 77 0
78 32 0
78 52 0
-32 -52 -78 0
-77 78 -79 0
77 -78 -79 0
-77 -78 79 0
77 78 79 0
-80 -73 0
-80 -79 0
73 79 80 0
-81 -13 0
-81 38 0
13 -38 81 0
82 23 0
82 22 0
-23 -22 -82 0
83 -5 0
83 10 0
5 -10 -83 0
-84 -82 0
-84 83 0
82 -83 84 0
85 -81 0
85 84 0
81 -84 -85 0
-86 80 0
-86 -85 0
-80 85 86 0
-88 -39 0
-88 -87 0
39 87 88 0
89 22 0
89 32 0
-22 -32 -89 0
90 -16 0
90 89 0
16 -89 -90 0
-25 90 -91 0
25 -90 -91 0
-25 -90 91 0
25 90 91 0
88 -91 -92 0
-88 91 -92 0
88 91 92 0
-88 -91 92 0
86 92 -93 0
-86 -92 -93 0
86 -92 93 0
-86 92 93 0
-70 93 -94 0
70 -93 -94 0
-70 -93 94 0
70 93 94 0
-69 94 -95 0
69 -94 -95 0
-69 -94 95 0
69 94 95 0
11 26 -96 0
-11 -26 -96 0
11 -26 96 0
-11 26 96 0
-97 -57 0
-97 -7 0
57 7 97 0
-98 34 0
-98 -43 0
-34 43 98 0
-98 -13 -99 0
98 13 -99 0
-98 13 99 0
98 -13 99 0
100 97 0
100 -99 0
-97 99 -100 0
-96 100 -101 0
96 -100 -101 0
-96 -100 101 0
96 100 101 0
25 -35 -102 0
-25 35 -102 0
25 35 102 0
-25 -35 102 0
9 -26 -103 0
-9 26 -103 0
9 26 103 0
-9 -26 103 0
102 -103 -104 0
-102 103 -104 0
102 103 104 0
-102 -103 104 0
105 101 0
105 -104 0
-101 104 -105 0
95 105 -106 0
-95 -105 -106 0
95 -105 106 0
-95 105 106 0
-107 -29 0
-107 106 0
29 -106 107 0
50 -67 46 -60 84 0
-5 43 6 -4 0
96 80 19 0
-77 -82 0
101 -77 58 -72 -80 0
6 79 70 48 -9 -86 0
30 -32 103 0
103 -3 18 36 0
-18 -100 -92 8 0
57 -45 47 -93 -89 38 0
-60 12 -6 -33 0
-78 37 64 0
-66 22 86 0
-3 11 78 -69 32 0
-102 -65 -99 98 0
-81 8 73 -98 -86 -5 0
9 -39 -14 -32 0
71 -26 -30 -8 0
7 91 16 47 0
-84 -70 -30 -4 -78 0
89 14 -94 88 -43 0
-22 58 -32 45 0
-54 -1 8 0
11 -44 -94 66 0
11 -40 93 -15 0
94 79 55 63 71 57 0
-92 68 14 -88 75 39 0
-18 40 101 0
-84 -73 17 -19 56 0
36 -9 -61 87 62 0
-64 17 44 0
68 11 84 -66 0
48 64 -5 61 97 0
-42 -5 -77 0
-88 64 -18 -82 52 0
-19 -79 -50 33 -8 0
73 96 0
-26 -87 -20 -104 -85 71 0
-81 44 -95 0
2 -10 -28 53 11 0
-99 46 57 -36 -22 0
83 39 -30 101 0
19 20 34 -84 0
-81 63 -72 0
15 -34 -88 79 0
6 -95 -71 -107 0
91 21 0
-92 -70 0
27 91 0
-12 -76 106 -84 0
89 54 97 0
90 56 -63 47 0
15 -1 -13 7 -58 0
23 106 51 -49 81 0
-70 -92 88 -22 -12 -24 0
88 -105 65 20 10 89 0
-26 -30 -57 -73 0
-4 -96 0
77 -20 -18 65 53 -82 0
-13 87 -66 18 -31 41 0
29 -33 -85 0
23 -72 48 -82 0
107 0
